(declare-const |phi___VERIFIER_assert__cond___11:347:454:907| Int)
(declare-const |main____CPAchecker_TMP_3':295:322:331:899:928| Int)
(declare-const __VERIFIER_assert__cond___7 Int)
(declare-const __VERIFIER_assert__cond___16 Int)
(declare-const |main__t':140:317:326:894:923| Int)
(declare-const |__VERIFIER_assert__cond___8':300:316:325:893:922| Int)
(declare-const havoc Int)
(declare-const |phi_main____CPAchecker_TMP_0:348:453:906| Int)
(declare-const |__VERIFIER_assert__cond___3':297:320:329:897:926| Int)
(declare-const __VERIFIER_assert__cond___8 Int)
(declare-const |main____CPAchecker_TMP_0___0':142:165:172:341:465:918| Int)
(declare-const |main__t':140:160:167:336:460:913| Int)
(declare-const |K:313:314:323:891:920| Int)
(declare-const |havoc:3:58:902| Int)
(declare-const |K:158:159:166:335:459:912| Int)
(declare-const |phi___VERIFIER_assert__cond___12:346:455:908| Int)
(declare-const main____CPAchecker_TMP_6 Int)
(declare-const |phi___VERIFIER_assert__cond___15:344:457:910| Int)
(declare-const main____CPAchecker_TMP_4 Int)
(declare-const |main____CPAchecker_TMP_0':141:162:169:338:462:915| Int)
(declare-const |__VERIFIER_assert__cond___4':298:319:328:896:925| Int)
(declare-const |main____CPAchecker_TMP_6':301:318:327:895:924| Int)
(declare-const __VERIFIER_assert__cond___3 Int)
(declare-const |phi_main__t:349:452:905| Int)
(declare-const |phi_main____CPAchecker_TMP_0___0:345:456:909| Int)
(declare-const main____CPAchecker_TMP_3 Int)
(declare-const |main____CPAchecker_TMP_4':296:321:330:898:927| Int)
(declare-const __VERIFIER_assert__cond___11 Int)
(declare-const __VERIFIER_assert__cond___12 Int)
(declare-const |havoc:31:62:722:901:930| Int)
(declare-const __tmp_383_0 Int)
(declare-const __VERIFIER_assert__cond___4 Int)
(declare-const |phi___VERIFIER_assert__cond___16:343:458:911| Int)
(declare-const |__tmp_383_0':139:163:170:339:463:916| Int)
(declare-const |phi___tmp_383_0:351:450:903| Int)
(declare-const |havoc:24:60:273:332:900:929| Int)
(declare-const main____CPAchecker_TMP_0___0 Int)
(declare-const |__VERIFIER_assert__cond___7':299:315:324:892:921| Int)
(declare-const __VERIFIER_assert__cond___15 Int)
(declare-const |havoc:9:59:138:334:342:466:919| Int)
(declare-const |phi___tmp_247_0:350:451:904| Int)
(declare-const |__VERIFIER_assert__cond___15':143:161:168:337:461:914| Int)
(declare-const |__VERIFIER_assert__cond___16':144:164:171:340:464:917| Int)
(assert (and (<= (+ (- havoc) 1) 0) (not (= (+ (- havoc) 1) 0))
               (or (and (not (= |havoc:3:58:902| 0))
                          (= (+ (- |phi___tmp_383_0:351:450:903|) __tmp_383_0) 0)
                          (= (+ (- |phi___tmp_247_0:350:451:904|)
                                  |havoc:3:58:902|) 0)
                          (= (- |phi_main__t:349:452:905|) 0)
                          (= (+ (- |phi_main____CPAchecker_TMP_0:348:453:906|)
                                  |havoc:3:58:902|) 0)
                          (= (+ (- |phi___VERIFIER_assert__cond___11:347:454:907|)
                                  __VERIFIER_assert__cond___11) 0)
                          (= (+ (- |phi___VERIFIER_assert__cond___12:346:455:908|)
                                  __VERIFIER_assert__cond___12) 0)
                          (= (+ (- |phi_main____CPAchecker_TMP_0___0:345:456:909|)
                                  main____CPAchecker_TMP_0___0) 0)
                          (= (+ (- |phi___VERIFIER_assert__cond___15:344:457:910|)
                                  __VERIFIER_assert__cond___15) 0)
                          (= (+ (- |phi___VERIFIER_assert__cond___16:343:458:911|)
                                  __VERIFIER_assert__cond___16) 0))
                     (and (= |havoc:3:58:902| 0)
                            (not (= (ite (<= (+ (- havoc) 1) 0) 1 0) 0))
                            (or (not (<= (- |K:158:159:166:335:459:912|) 0))
                                  (= (+ |main__t':140:160:167:336:460:913|
                                          (- |K:158:159:166:335:459:912|)) 0))
                            (or (not (and (<= (- |K:158:159:166:335:459:912|) 0)
                                            (<= |K:158:159:166:335:459:912| 0)))
                                  (= (+ |__VERIFIER_assert__cond___15':143:161:168:337:461:914|
                                          (- __VERIFIER_assert__cond___15)) 0))
                            (or (not (<= (+ (- |K:158:159:166:335:459:912|) 1) 0))
                                  (= (+ |__VERIFIER_assert__cond___15':143:161:168:337:461:914|
                                          -1) 0))
                            (or (not (and (<= (- |K:158:159:166:335:459:912|) 0)
                                            (<= |K:158:159:166:335:459:912| 0)))
                                  (= (+ |main____CPAchecker_TMP_0':141:162:169:338:462:915|
                                          (- |havoc:3:58:902|)) 0))
                            (or (not (<= (+ (- |K:158:159:166:335:459:912|) 1) 0))
                                  (= |main____CPAchecker_TMP_0':141:162:169:338:462:915| 0))
                            (or (not (and (<= (- |K:158:159:166:335:459:912|) 0)
                                            (<= |K:158:159:166:335:459:912| 0)))
                                  (= (+ |__tmp_383_0':139:163:170:339:463:916|
                                          (- |havoc:3:58:902|)) 0))
                            (or (not (<= (+ (- |K:158:159:166:335:459:912|) 1) 0))
                                  (= |__tmp_383_0':139:163:170:339:463:916| 0))
                            (or (not (and (<= (- |K:158:159:166:335:459:912|) 0)
                                            (<= |K:158:159:166:335:459:912| 0)))
                                  (= (+ |__VERIFIER_assert__cond___16':144:164:171:340:464:917|
                                          (- __VERIFIER_assert__cond___16)) 0))
                            (or (not (<= (+ (- |K:158:159:166:335:459:912|) 1) 0))
                                  (= (+ |__VERIFIER_assert__cond___16':144:164:171:340:464:917|
                                          -1) 0))
                            (or (not (and (<= (- |K:158:159:166:335:459:912|) 0)
                                            (<= |K:158:159:166:335:459:912| 0)))
                                  (= (+ |main____CPAchecker_TMP_0___0':142:165:172:341:465:918|
                                          (- main____CPAchecker_TMP_0___0)) 0))
                            (or (not (<= (+ (- |K:158:159:166:335:459:912|) 1) 0))
                                  (= |main____CPAchecker_TMP_0___0':142:165:172:341:465:918| 0))
                            (or (and (= |K:158:159:166:335:459:912| 0)
                                       (= (+ (- |__VERIFIER_assert__cond___16':144:164:171:340:464:917|)
                                               __VERIFIER_assert__cond___16) 0)
                                       (= (+ (- |__VERIFIER_assert__cond___15':143:161:168:337:461:914|)
                                               __VERIFIER_assert__cond___15) 0)
                                       (= (+ (- |main____CPAchecker_TMP_0___0':142:165:172:341:465:918|)
                                               main____CPAchecker_TMP_0___0) 0)
                                       (= (+ (- |main____CPAchecker_TMP_0':141:162:169:338:462:915|)
                                               |havoc:3:58:902|) 0)
                                       (= (- |main__t':140:160:167:336:460:913|) 0)
                                       (= (+ (- |__tmp_383_0':139:163:170:339:463:916|)
                                               |havoc:3:58:902|) 0))
                                  (and (<= (+ (- |K:158:159:166:335:459:912|)
                                                1) 0) (= |havoc:3:58:902| 0)
                                         (= |havoc:3:58:902| 0)
                                         (<= (+ (- havoc) 3) 0)
                                         (= (+ |__VERIFIER_assert__cond___16':144:164:171:340:464:917|
                                                 -1) 0)
                                         (= (+ |__VERIFIER_assert__cond___15':143:161:168:337:461:914|
                                                 -1) 0)
                                         (= |main____CPAchecker_TMP_0':141:162:169:338:462:915| 0)
                                         (= |main____CPAchecker_TMP_0___0':142:165:172:341:465:918| 0)
                                         (= |__tmp_383_0':139:163:170:339:463:916| 0)
                                         (<= (+ |main__t':140:160:167:336:460:913|
                                                  (- havoc) 2) 0)
                                         (<= (+ (- |main__t':140:160:167:336:460:913|)
                                                  1) 0)))
                            (<= (- |K:158:159:166:335:459:912|) 0)
                            (= |__tmp_383_0':139:163:170:339:463:916| 0)
                            (= |main____CPAchecker_TMP_0':141:162:169:338:462:915| 0)
                            (<= (- |main__t':140:160:167:336:460:913|) 0)
                            (< (+ (- havoc) 1) 0)
                            (= |__tmp_383_0':139:163:170:339:463:916| 0)
                            (= |main____CPAchecker_TMP_0':141:162:169:338:462:915| 0)
                            (not (= (+ |main__t':140:160:167:336:460:913|
                                         (- havoc) 2) 0))
                            (not (= |havoc:9:59:138:334:342:466:919| 0))
                            (= (+ |__tmp_383_0':139:163:170:339:463:916|
                                    (- |phi___tmp_383_0:351:450:903|)) 0)
                            (= (+ |havoc:9:59:138:334:342:466:919|
                                    (- |phi___tmp_247_0:350:451:904|)) 0)
                            (= (+ |main__t':140:160:167:336:460:913|
                                    (- |phi_main__t:349:452:905|) 1) 0)
                            (= (+ |__tmp_383_0':139:163:170:339:463:916|
                                    (- |phi_main____CPAchecker_TMP_0:348:453:906|)) 0)
                            (= (+ (- |phi___VERIFIER_assert__cond___11:347:454:907|)
                                    1) 0)
                            (= (+ (ite (<= (+ (- havoc) 1) 0) 1 0)
                                    (- |phi___VERIFIER_assert__cond___12:346:455:908|)) 0)
                            (= (+ |havoc:9:59:138:334:342:466:919|
                                    (- |phi_main____CPAchecker_TMP_0___0:345:456:909|)) 0)
                            (= (+ |__VERIFIER_assert__cond___15':143:161:168:337:461:914|
                                    (- |phi___VERIFIER_assert__cond___15:344:457:910|)) 0)
                            (= (+ |__VERIFIER_assert__cond___16':144:164:171:340:464:917|
                                    (- |phi___VERIFIER_assert__cond___16:343:458:911|)) 0)))
               (not (= (ite (<= (- |phi_main__t:349:452:905|) 0) 1 0) 0))
               (not (= (ite (<= (+ |phi_main__t:349:452:905| (- havoc) 1) 0)
                            1 0) 0))
               (or (not (and (<= (- |K:313:314:323:891:920|) 0)
                               (<= |K:313:314:323:891:920| 0)))
                     (= (+ (- __VERIFIER_assert__cond___7)
                             |__VERIFIER_assert__cond___7':299:315:324:892:921|) 0))
               (or (not (<= (+ (- |K:313:314:323:891:920|) 1) 0))
                     (= (+ |__VERIFIER_assert__cond___7':299:315:324:892:921|
                             -1) 0))
               (or (not (and (<= (- |K:313:314:323:891:920|) 0)
                               (<= |K:313:314:323:891:920| 0)))
                     (= (+ (- __VERIFIER_assert__cond___8)
                             |__VERIFIER_assert__cond___8':300:316:325:893:922|) 0))
               (or (not (<= (+ (- |K:313:314:323:891:920|) 1) 0))
                     (= (+ |__VERIFIER_assert__cond___8':300:316:325:893:922|
                             -1) 0))
               (or (not (<= (- |K:313:314:323:891:920|) 0))
                     (<= (+ |main__t':140:317:326:894:923|
                              (* -2 |K:313:314:323:891:920|)
                              (- |phi_main__t:349:452:905|) -1) 0))
               (or (not (<= (- |K:313:314:323:891:920|) 0))
                     (<= (+ |main__t':140:317:326:894:923|
                              (* 2 |K:313:314:323:891:920|)
                              (- |phi_main__t:349:452:905|)
                              (- (* |K:313:314:323:891:920| havoc)) -1) 0))
               (or (not (<= (- |K:313:314:323:891:920|) 0))
                     (<= (+ (- |main__t':140:317:326:894:923|)
                              |K:313:314:323:891:920|
                              |phi_main__t:349:452:905| 1) 0))
               (or (and (= |K:313:314:323:891:920| 0)
                          (= (+ (- |main____CPAchecker_TMP_6':301:318:327:895:924|)
                                  main____CPAchecker_TMP_6) 0)
                          (= (+ __VERIFIER_assert__cond___8
                                  (- |__VERIFIER_assert__cond___8':300:316:325:893:922|)) 0)
                          (= (+ __VERIFIER_assert__cond___7
                                  (- |__VERIFIER_assert__cond___7':299:315:324:892:921|)) 0)
                          (= (+ (- |__VERIFIER_assert__cond___4':298:319:328:896:925|)
                                  __VERIFIER_assert__cond___4) 0)
                          (= (+ (- |__VERIFIER_assert__cond___3':297:320:329:897:926|)
                                  __VERIFIER_assert__cond___3) 0)
                          (= (+ (- |main____CPAchecker_TMP_4':296:321:330:898:927|)
                                  main____CPAchecker_TMP_4) 0)
                          (= (+ (- |main____CPAchecker_TMP_3':295:322:331:899:928|)
                                  main____CPAchecker_TMP_3) 0)
                          (= (+ (- |main__t':140:317:326:894:923|)
                                  |phi_main__t:349:452:905| 1) 0))
                     (and (<= (+ (- |K:313:314:323:891:920|) 1) 0)
                            (<= (+ |phi_main__t:349:452:905| (- havoc) 3) 0)
                            (<= (- |phi_main__t:349:452:905|) 0)
                            (= (+ |__VERIFIER_assert__cond___8':300:316:325:893:922|
                                    -1) 0)
                            (= (+ |__VERIFIER_assert__cond___7':299:315:324:892:921|
                                    -1) 0)
                            (<= (+ |main__t':140:317:326:894:923| (- havoc) 1) 0)
                            (<= (+ (- |main__t':140:317:326:894:923|) 2) 0)))
               (<= (- |K:313:314:323:891:920|) 0)
               (< (- |main__t':140:317:326:894:923|) 0) (< (+ (- havoc) 1) 0)
               (not (= (+ |main__t':140:317:326:894:923| (- havoc) 1) 0))
               (not (= |havoc:24:60:273:332:900:929| 0))
               (not (= |havoc:31:62:722:901:930| 0))
               (not (= (ite (<= (- |main__t':140:317:326:894:923|) 0) 1 0) 0))
               (= (ite (<= (+ |main__t':140:317:326:894:923| (- havoc) 1) 0)
                       1 0) 0)))
(check-sat)
